tsp_instances/TSP50/instance86.tsp
NODE_COORD_SECTION
0 2 199
1 54 97
2 85 75
3 122 60
4 149 61
5 185 21
6 36 184
7 181 154
8 102 49
9 181 78
10 167 106
11 160 170
12 110 85
13 70 103
14 184 44
15 27 178
16 58 79
17 156 61
18 8 164
19 48 167
20 66 22
21 1 139
22 24 143
23 28 63
24 129 78
25 173 141
26 121 23
27 123 168
28 169 21
29 189 179
30 59 171
31 5 61
32 145 140
33 74 38
34 42 175
35 125 2
36 160 23
37 181 196
38 108 67
39 151 90
40 135 162
41 68 174
42 3 77
43 181 58
44 12 134
45 179 177
46 123 91
47 163 159
48 99 91
49 171 86
