tsp_instances/TSP50/instance86.opt.tour
TOUR_SECTION
1
16
7
35
20
31
42
28
41
33
48
12
46
38
30
8
26
11
40
5
18
50
10
44
15
6
29
37
36
27
21
34
9
39
4
25
47
13
49
3
14
2
17
24
32
43
22
45
23
19
-1